
Gurobi 5.6.3 (mac64) logging started Thu Nov 13 15:02:25 2014


Gurobi 5.6.3 (mac64) logging started Thu Nov 13 15:02:41 2014


Gurobi 5.6.3 (mac64) logging started Thu Nov 13 15:37:21 2014

Optimize a model with 2 rows, 3 columns and 5 nonzeros
Found heuristic solution: objective 2
Presolve removed 2 rows and 3 columns
Presolve time: 0.00s

Explored 0 nodes (0 simplex iterations) in 0.00 seconds
Thread count was 1 (of 4 available processors)

Optimal solution found (tolerance 1.00e-04)
Best objective 3.000000000000e+00, best bound 3.000000000000e+00, gap 0.0%

Gurobi 5.6.3 (mac64) logging started Thu Nov 13 15:41:46 2014


Gurobi 5.6.3 (mac64) logging started Thu Nov 13 15:44:49 2014


Gurobi 5.6.3 (mac64) logging started Thu Nov 13 15:49:23 2014

Optimize a model with 2 rows, 3 columns and 5 nonzeros
Found heuristic solution: objective 2
Presolve removed 2 rows and 3 columns
Presolve time: 0.00s

Explored 0 nodes (0 simplex iterations) in 0.00 seconds
Thread count was 1 (of 4 available processors)

Optimal solution found (tolerance 1.00e-04)
Best objective 3.000000000000e+00, best bound 3.000000000000e+00, gap 0.0%

Gurobi 5.6.3 (mac64) logging started Thu Nov 13 16:09:22 2014

Optimize a model with 2 rows, 3 columns and 5 nonzeros
Found heuristic solution: objective 2
Presolve removed 2 rows and 3 columns
Presolve time: 0.00s

Explored 0 nodes (0 simplex iterations) in 0.00 seconds
Thread count was 1 (of 4 available processors)

Optimal solution found (tolerance 1.00e-04)
Best objective 3.000000000000e+00, best bound 3.000000000000e+00, gap 0.0%

Gurobi 5.6.3 (mac64) logging started Thu Nov 13 16:11:57 2014

Optimize a model with 2 rows, 3 columns and 5 nonzeros
Found heuristic solution: objective 2
Presolve removed 2 rows and 3 columns
Presolve time: 0.00s

Explored 0 nodes (0 simplex iterations) in 0.00 seconds
Thread count was 1 (of 4 available processors)

Optimal solution found (tolerance 1.00e-04)
Best objective 3.000000000000e+00, best bound 3.000000000000e+00, gap 0.0%

Gurobi 5.6.3 (mac64) logging started Thu Nov 13 16:13:18 2014


Gurobi 5.6.3 (mac64) logging started Thu Nov 13 16:14:14 2014


Gurobi 5.6.3 (mac64) logging started Thu Nov 13 16:14:30 2014


Gurobi 5.6.3 (mac64) logging started Thu Nov 13 16:14:42 2014


Gurobi 5.6.3 (mac64) logging started Thu Nov 13 16:15:04 2014

Optimize a model with 2 rows, 3 columns and 5 nonzeros
Found heuristic solution: objective 2
Presolve removed 2 rows and 3 columns
Presolve time: 0.00s

Explored 0 nodes (0 simplex iterations) in 0.00 seconds
Thread count was 1 (of 4 available processors)

Optimal solution found (tolerance 1.00e-04)
Best objective 3.000000000000e+00, best bound 3.000000000000e+00, gap 0.0%

Gurobi 5.6.3 (mac64) logging started Thu Nov 13 16:15:40 2014

Optimize a model with 2 rows, 3 columns and 5 nonzeros
Found heuristic solution: objective 2
Presolve removed 2 rows and 3 columns
Presolve time: 0.00s

Explored 0 nodes (0 simplex iterations) in 0.00 seconds
Thread count was 1 (of 4 available processors)

Optimal solution found (tolerance 1.00e-04)
Best objective 3.000000000000e+00, best bound 3.000000000000e+00, gap 0.0%

Gurobi 5.6.3 (mac64) logging started Thu Nov 13 16:58:45 2014

Optimize a model with 2 rows, 3 columns and 5 nonzeros
Found heuristic solution: objective 2
Presolve removed 2 rows and 3 columns
Presolve time: 0.00s

Explored 0 nodes (0 simplex iterations) in 0.00 seconds
Thread count was 1 (of 4 available processors)

Optimal solution found (tolerance 1.00e-04)
Best objective 3.000000000000e+00, best bound 3.000000000000e+00, gap 0.0%

Gurobi 5.6.3 (mac64) logging started Thu Nov 13 17:15:25 2014


Gurobi 5.6.3 (mac64) logging started Thu Nov 13 17:15:42 2014


Gurobi 5.6.3 (mac64) logging started Thu Nov 13 17:17:55 2014


Gurobi 5.6.3 (mac64) logging started Thu Nov 13 17:18:56 2014


Gurobi 5.6.3 (mac64) logging started Thu Nov 13 17:20:25 2014


Gurobi 5.6.3 (mac64) logging started Thu Nov 13 17:21:01 2014


Gurobi 5.6.3 (mac64) logging started Thu Nov 13 17:21:17 2014


Gurobi 5.6.3 (mac64) logging started Thu Nov 13 17:21:26 2014

Optimize a model with 4 rows, 2 columns and 8 nonzeros
Presolve time: 0.00s
Presolved: 4 rows, 2 columns, 8 nonzeros

Iteration    Objective       Primal Inf.    Dual Inf.      Time
       0    0.0000000e+00   1.100000e+02   0.000000e+00      0s
       2    5.4835165e+02   0.000000e+00   0.000000e+00      0s

Solved in 2 iterations and 0.00 seconds
Optimal objective  5.483516484e+02
Optimize a model with 2 rows, 3 columns and 5 nonzeros
Found heuristic solution: objective 2
Presolve removed 2 rows and 3 columns
Presolve time: 0.00s

Explored 0 nodes (0 simplex iterations) in 0.00 seconds
Thread count was 1 (of 4 available processors)

Optimal solution found (tolerance 1.00e-04)
Best objective 3.000000000000e+00, best bound 3.000000000000e+00, gap 0.0%

Gurobi 5.6.3 (mac64) logging started Thu Nov 13 17:22:38 2014

Optimize a model with 4 rows, 2 columns and 8 nonzeros
Presolve time: 0.00s
Presolved: 4 rows, 2 columns, 8 nonzeros

Iteration    Objective       Primal Inf.    Dual Inf.      Time
       0    0.0000000e+00   1.100000e+02   0.000000e+00      0s
       2    5.4835165e+02   0.000000e+00   0.000000e+00      0s

Solved in 2 iterations and 0.00 seconds
Optimal objective  5.483516484e+02
Optimize a model with 2 rows, 3 columns and 5 nonzeros
Found heuristic solution: objective 2
Presolve removed 2 rows and 3 columns
Presolve time: 0.00s

Explored 0 nodes (0 simplex iterations) in 0.00 seconds
Thread count was 1 (of 4 available processors)

Optimal solution found (tolerance 1.00e-04)
Best objective 3.000000000000e+00, best bound 3.000000000000e+00, gap 0.0%

Gurobi 5.6.3 (mac64) logging started Thu Nov 13 17:23:01 2014

Optimize a model with 4 rows, 2 columns and 8 nonzeros
Presolve time: 0.00s
Presolved: 4 rows, 2 columns, 8 nonzeros

Iteration    Objective       Primal Inf.    Dual Inf.      Time
       0    0.0000000e+00   1.100000e+02   0.000000e+00      0s
       2    5.4835165e+02   0.000000e+00   0.000000e+00      0s

Solved in 2 iterations and 0.00 seconds
Optimal objective  5.483516484e+02

Gurobi 5.6.3 (mac64) logging started Thu Nov 13 17:51:14 2014

Optimize a model with 4 rows, 2 columns and 8 nonzeros
Presolve time: 0.00s
Presolved: 4 rows, 2 columns, 8 nonzeros

Iteration    Objective       Primal Inf.    Dual Inf.      Time
       0    0.0000000e+00   1.100000e+02   0.000000e+00      0s
       2    5.4835165e+02   0.000000e+00   0.000000e+00      0s

Solved in 2 iterations and 0.00 seconds
Optimal objective  5.483516484e+02
Optimize a model with 2 rows, 4 columns and 8 nonzeros
Presolve time: 0.00s
Presolved: 2 rows, 4 columns, 8 nonzeros

Iteration    Objective       Primal Inf.    Dual Inf.      Time
       0    0.0000000e+00   2.000000e+00   0.000000e+00      0s
       2    3.1417323e+02   0.000000e+00   0.000000e+00      0s

Solved in 2 iterations and 0.00 seconds
Optimal objective  3.141732283e+02

Gurobi 5.6.3 (mac64) logging started Thu Nov 13 17:51:47 2014

Optimize a model with 4 rows, 2 columns and 8 nonzeros
Presolve time: 0.00s
Presolved: 4 rows, 2 columns, 8 nonzeros

Iteration    Objective       Primal Inf.    Dual Inf.      Time
       0    0.0000000e+00   1.100000e+02   0.000000e+00      0s
       2    5.4835165e+02   0.000000e+00   0.000000e+00      0s

Solved in 2 iterations and 0.00 seconds
Optimal objective  5.483516484e+02
Optimize a model with 2 rows, 4 columns and 8 nonzeros
Presolve time: 0.00s
Presolved: 2 rows, 4 columns, 8 nonzeros

Iteration    Objective       Primal Inf.    Dual Inf.      Time
       0    0.0000000e+00   2.000000e+00   0.000000e+00      0s
       2    3.1417323e+02   0.000000e+00   0.000000e+00      0s

Solved in 2 iterations and 0.00 seconds
Optimal objective  3.141732283e+02

Gurobi 5.6.3 (mac64) logging started Thu Nov 13 17:55:24 2014

Optimize a model with 4 rows, 2 columns and 8 nonzeros
Presolve time: 0.00s
Presolved: 4 rows, 2 columns, 8 nonzeros

Iteration    Objective       Primal Inf.    Dual Inf.      Time
       0    2.0000000e+30   0.000000e+00   2.000000e+00      0s

Solved in 0 iterations and 0.00 seconds
Unbounded model

Gurobi 5.6.3 (mac64) logging started Thu Nov 13 17:55:50 2014

Optimize a model with 4 rows, 2 columns and 8 nonzeros
Presolve time: 0.00s
Presolved: 4 rows, 2 columns, 8 nonzeros

Iteration    Objective       Primal Inf.    Dual Inf.      Time
       0    0.0000000e+00   1.100000e+02   0.000000e+00      0s
       2    5.4835165e+02   0.000000e+00   0.000000e+00      0s

Solved in 2 iterations and 0.00 seconds
Optimal objective  5.483516484e+02
Optimize a model with 2 rows, 4 columns and 8 nonzeros
Presolve time: 0.00s
Presolved: 2 rows, 4 columns, 8 nonzeros

Iteration    Objective       Primal Inf.    Dual Inf.      Time
       0    1.1000000e+32   5.000000e+29   1.100000e+02      0s
       2    5.4835165e+02   0.000000e+00   0.000000e+00      0s

Solved in 2 iterations and 0.00 seconds
Optimal objective  5.483516484e+02

Gurobi 5.6.3 (mac64) logging started Thu Nov 13 17:58:02 2014

Optimize a model with 4 rows, 2 columns and 8 nonzeros
Presolve time: 0.00s
Presolved: 4 rows, 2 columns, 8 nonzeros

Iteration    Objective       Primal Inf.    Dual Inf.      Time
       0    0.0000000e+00   1.100000e+02   0.000000e+00      0s
       2    5.4835165e+02   0.000000e+00   0.000000e+00      0s

Solved in 2 iterations and 0.00 seconds
Optimal objective  5.483516484e+02
Optimize a model with 2 rows, 4 columns and 8 nonzeros
Presolve time: 0.00s
Presolved: 2 rows, 4 columns, 8 nonzeros

Iteration    Objective       Primal Inf.    Dual Inf.      Time
       0    1.1000000e+32   5.000000e+29   1.100000e+02      0s
       2    5.4835165e+02   0.000000e+00   0.000000e+00      0s

Solved in 2 iterations and 0.00 seconds
Optimal objective  5.483516484e+02
